50
    1   299   345
    2   796   693
    3   429   467
    4    65   100
    5   623   141
    6   702   291
    7   999   670
    8   401   781
    9   196    46
   10   904    59
   11   204   357
   12   720   100
   13   408   493
   14   327   661
   15   148   206
   16   617   254
   17   611   310
   18    15   425
   19   320   258
   20   679   407
   21   791   614
   22   604   313
   23   801   901
   24   893   496
   25   246   350
   26    44   121
   27   973   795
   28   821   617
   29    63   439
   30    94   104
   31   386   795
   32   805   141
   33   505   525
   34   612   414
   35   241    45
   36   570   762
   37   150   749
   38   700   518
   39   564   637
   40   897   976
   41   713   416
   42   595   523
   43    39   247
   44   848   759
   45   304   416
   46   168   644
   47   658   395
   48   634   379
   49   978   216
   50   127   657
14685
